
Gurobi 10.0.1 (linux64) logging started Sun Nov 26 15:42:24 2023

Set parameter LogFile to value "ArtificialInstance/ExperimentV2/S3T4K1/AdSp/gurobiDoSp61.txt"
Gurobi Optimizer version 10.0.1 build v10.0.1rc0 (linux64)

CPU model: AMD EPYC 7H12 64-Core Processor, instruction set [SSE2|AVX|AVX2]
Thread count: 128 physical cores, 128 logical processors, using up to 32 threads

Academic license 656792 - for non-commercial use only - registered to b.___@student.vu.nl
Optimize a model with 3788 rows, 3524 columns and 13410 nonzeros
Model fingerprint: 0x129ab0d5
Variable types: 0 continuous, 3524 integer (3524 binary)
Coefficient statistics:
  Matrix range     [1e+00, 1e+00]
  Objective range  [1e+00, 2e+01]
  Bounds range     [1e+00, 1e+00]
  RHS range        [1e+00, 1e+00]
Presolve removed 3008 rows and 2793 columns
Presolve time: 0.05s
Presolved: 780 rows, 731 columns, 2924 nonzeros
Variable types: 0 continuous, 731 integer (731 binary)

Root relaxation: objective 4.825192e+01, 73 iterations, 0.00 seconds (0.00 work units)

    Nodes    |    Current Node    |     Objective Bounds      |     Work
 Expl Unexpl |  Obj  Depth IntInf | Incumbent    BestBd   Gap | It/Node Time

*    0     0               0      48.2519249   48.25192  0.00%     -    0s

Explored 1 nodes (73 simplex iterations) in 0.08 seconds (0.04 work units)
Thread count was 32 (of 128 available processors)

Solution count 1: 48.2519 

Optimal solution found (tolerance 1.00e-04)
Best objective 4.825192485688e+01, best bound 4.825192485688e+01, gap 0.0000%
